Geographic Exponential Decay
40 245 169 131 136 100 113 313 73 128 127 255 140 250 49 72 203 123 121 83 98 65 84 314 298 111 212 38 34 221 256 225 51 286 144 36 16 155 160 194 40
p edge 320 327
e 0 167 2.0
e 1 113 17.0
e 1 0 4.0
e 2 122 14.0
e 2 209 18.0
e 2 1 21.0
e 3 108 1.0
e 3 2 20.0
e 4 204 1.0
e 4 3 1.0
e 5 93 7.0
e 5 4 2.0
e 6 235 1.0
e 6 5 1.0
e 7 310 1.0
e 7 6 1.0
e 8 136 71.0
e 8 7 1.0
e 9 112 5.0
e 9 8 5.0
e 10 289 1.0
e 10 9 4.0
e 11 144 9.0
e 11 10 3.0
e 12 267 5.0
e 12 11 1.0
e 13 302 1.0
e 13 12 2.0
e 14 127 79.0
e 14 58 15.0
e 14 13 7.0
e 15 295 1.0
e 15 14 5.0
e 16 234 54.0
e 16 125 58.0
e 16 290 19.0
e 16 170 19.0
e 16 50 93.0
e 16 15 62.0
e 17 56 1.0
e 17 16 69.0
e 18 99 23.0
e 18 185 16.0
e 18 17 7.0
e 19 247 2.0
e 19 18 6.0
e 20 208 1.0
e 20 19 4.0
e 21 303 3.0
e 21 59 16.0
e 21 20 1.0
e 22 291 2.0
e 22 21 15.0
e 23 24 6.0
e 23 22 1.0
e 25 128 50.0
e 26 260 7.0
e 26 23 10.0
e 27 96 2.0
e 27 26 6.0
e 28 51 24.0
e 29 265 6.0
e 29 27 1.0
e 30 106 8.0
e 30 29 4.0
e 31 166 1.0
e 31 30 5.0
e 32 294 1.0
e 32 31 5.0
e 33 72 19.0
e 34 228 26.0
e 34 243 73.0
e 34 171 65.0
e 34 52 39.0
e 34 175 19.0
e 34 32 85.0
e 35 270 1.0
e 35 34 68.0
e 36 285 8.0
e 36 69 23.0
e 36 160 65.0
e 36 178 2.0
e 36 37 43.0
e 38 305 14.0
e 38 280 52.0
e 38 203 79.0
e 38 268 7.0
e 38 227 3.0
e 39 259 4.0
e 39 35 4.0
e 40 53 58.0
e 40 229 70.0
e 40 316 49.0
e 40 309 48.0
e 40 281 7.0
e 40 39 94.0
e 41 116 5.0
e 41 40 56.0
e 42 198 3.0
e 42 41 3.0
e 43 44 6.0
e 43 42 5.0
e 45 48 1.0
e 45 43 9.0
e 46 47 7.0
e 46 45 9.0
e 49 51 84.0
e 49 67 99.0
e 49 130 85.0
e 49 307 96.0
e 49 149 8.0
e 51 121 44.0
e 51 79 76.0
e 51 187 43.0
e 54 60 1.0
e 54 46 10.0
e 55 287 5.0
e 55 54 2.0
e 57 61 1.0
e 57 55 1.0
e 62 63 4.0
e 62 57 3.0
e 64 97 1.0
e 64 62 1.0
e 65 266 27.0
e 65 207 89.0
e 65 296 34.0
e 65 236 27.0
e 65 179 78.0
e 65 64 10.0
e 66 313 5.0
e 66 65 88.0
e 68 275 34.0
e 70 210 5.0
e 70 98 62.0
e 71 94 35.0
e 71 269 41.0
e 71 168 1.0
e 71 66 9.0
e 72 73 15.0
e 72 74 67.0
e 72 199 81.0
e 72 75 12.0
e 73 237 23.0
e 73 144 21.0
e 73 293 75.0
e 73 220 69.0
e 76 181 24.0
e 76 297 20.0
e 76 71 12.0
e 77 156 33.0
e 77 169 18.0
e 77 98 80.0
e 78 188 14.0
e 79 154 11.0
e 80 292 5.0
e 80 76 22.0
e 81 82 1.0
e 81 80 5.0
e 83 98 93.0
e 83 157 22.0
e 83 195 77.0
e 83 182 60.0
e 83 222 31.0
e 84 282 75.0
e 84 238 91.0
e 84 311 51.0
e 84 190 88.0
e 84 136 7.0
e 85 143 1.0
e 85 81 1.0
e 86 87 1.0
e 86 85 2.0
e 88 196 4.0
e 88 86 2.0
e 89 141 1.0
e 89 88 1.0
e 90 283 3.0
e 90 89 4.0
e 91 273 2.0
e 91 90 1.0
e 92 298 67.0
e 95 317 2.0
e 95 91 1.0
e 98 100 7.0
e 98 186 86.0
e 100 105 8.0
e 100 152 25.0
e 100 118 95.0
e 100 239 84.0
e 101 271 2.0
e 102 158 8.0
e 102 95 10.0
e 103 104 2.0
e 103 102 1.0
e 107 191 1.0
e 107 103 1.0
e 109 110 4.0
e 109 107 1.0
e 111 113 49.0
e 111 114 85.0
e 111 115 74.0
e 111 249 83.0
e 111 240 98.0
e 113 264 6.0
e 113 284 39.0
e 113 193 55.0
e 117 226 1.0
e 117 109 2.0
e 119 120 1.0
e 119 117 1.0
e 121 231 94.0
e 121 241 23.0
e 121 304 26.0
e 121 123 41.0
e 123 124 44.0
e 123 126 62.0
e 123 127 25.0
e 123 128 82.0
e 127 242 27.0
e 127 250 49.0
e 127 128 88.0
e 128 188 86.0
e 128 286 98.0
e 129 233 1.0
e 129 119 1.0
e 131 144 59.0
e 131 163 14.0
e 131 197 64.0
e 131 184 53.0
e 131 132 28.0
e 133 245 50.0
e 134 135 1.0
e 134 129 3.0
e 136 137 77.0
e 136 288 88.0
e 136 138 6.0
e 139 225 36.0
e 140 142 93.0
e 140 257 60.0
e 140 261 60.0
e 140 144 36.0
e 140 244 12.0
e 142 144 3.0
e 142 177 16.0
e 145 146 9.0
e 145 134 3.0
e 147 313 45.0
e 148 183 6.0
e 148 145 8.0
e 150 213 1.0
e 150 148 1.0
e 151 245 73.0
e 153 159 11.0
e 153 150 4.0
e 155 160 46.0
e 155 246 18.0
e 155 161 44.0
e 155 298 37.0
e 155 162 68.0
e 160 219 40.0
e 160 188 61.0
e 160 189 83.0
e 163 164 15.0
e 165 169 45.0
e 169 170 74.0
e 169 232 57.0
e 169 172 15.0
e 173 230 19.0
e 173 174 8.0
e 173 153 17.0
e 176 180 3.0
e 176 173 19.0
e 192 194 100.0
e 194 196 90.0
e 194 200 41.0
e 194 274 98.0
e 194 201 29.0
e 202 203 60.0
e 203 205 78.0
e 203 311 97.0
e 203 206 68.0
e 209 263 13.0
e 211 248 1.0
e 211 176 1.0
e 212 245 4.0
e 212 250 56.0
e 212 214 46.0
e 212 215 94.0
e 212 216 48.0
e 217 218 2.0
e 217 211 1.0
e 221 298 76.0
e 221 223 6.0
e 221 252 95.0
e 221 255 74.0
e 221 224 64.0
e 225 231 90.0
e 225 298 78.0
e 225 245 82.0
e 225 250 98.0
e 231 245 29.0
e 250 251 67.0
e 250 253 97.0
e 254 255 2.0
e 255 256 58.0
e 255 258 76.0
e 255 262 45.0
e 256 271 69.0
e 256 272 81.0
e 256 275 62.0
e 256 286 97.0
e 275 276 46.0
e 277 278 1.0
e 277 217 2.0
e 279 286 53.0
e 286 298 67.0
e 286 299 64.0
e 300 301 1.0
e 300 277 2.0
e 306 308 6.0
e 306 300 5.0
e 312 313 15.0
e 313 314 62.0
e 313 315 32.0
e 314 318 33.0
e 314 319 11.0
